n_skills = 3;
n_workers = 5;
has_skills = [{1}, {1}, {1, 2}, {2, 3}, {3}];
n_tasks = 18;
d = [17, 17, 17, 17, 19, 5, 14, 10, 6, 10, 15, 7, 7, 8, 12, 15, 17, 13];
rr = [| 2, 0, 1, 1, 0, 2, 0, 2, 1, 1, 1, 1, 1, 2, 2, 1, 1, 0
      | 1, 1, 1, 1, 1, 1, 1, 1, 1, 1, 1, 1, 1, 1, 1, 1, 0, 0
      | 1, 0, 1, 0, 1, 0, 1, 0, 0, 0, 0, 0, 1, 1, 0, 0, 1, 1 |];
suc = [{16}, {10, 16}, {}, {}, {8, 11}, {13}, {}, {}, {11, 14}, {17}, {}, {16}, {}, {}, {}, {}, {}, {}];
maxMakeSpan = 100;


% 1.) Work with some other agent
workTogether =   [{1,2}, {3,4}, {1,3}, {2,4,5}, {1,4},{2,5}];
scWorkTogether = [    1,     2,     3,       4,     5,    6];

% 2.) Do not work with other agent
workNotTogether =   [{1,4}, {2,3}, {1,5}, {2,4}];
scWorkNotTogether = [    7,     8,     9,      10];

% 3.) Work on certain task preferably
desiredTaskWorkers = [1,   2,  3,  4];
desiredTasks =       [17,  3,  4,  2];
scDesireds =         [11, 12, 13, 14];

% 4.) Do not work on a certain task preferably  
avoidedTaskWorkers = [1,   1,  5];
avoidedTasks =       [2,   3, 1];
scAvoideds =         [15, 16, 17];

crTempEdges = [| 3, 1 |
                 2, 3 |
                 2, 4 |
                 4, 1 |
                 1, 6 |
                 1, 7 |
                 8, 3 |
                10, 4 |
                12, 4 |
                15, 1 |
                16, 15 |
                12, 17 |];
